Route #1: 2 22 28 21 36 47 48 30 
Route #2: 4 45 29 5 37 20 15 13 27 
Route #3: 6 33 1 43 42 41 23 
Route #4: 7 53 11 38 10 31 25 
Route #5: 16 49 24 18 50 32 44 3 51 
Route #6: 17 9 39 40 12 26 
Route #7: 34 46 52 8 54 19 14 35 
cost 605.107
